(set-info :Origin "This instance was generated by: BanditFuzz-- an RL fuzzer for SMT solvers" )
(set-info :Author "Joe Scott, Fed Mora, Vijay Ganesh" )
(set-info :Contact "Joe Scott, joseph.scott@uwaterloo.ca")
(set-logic QF_BV)
(declare-const bool_0 Bool)
(declare-const bool_1 Bool)
(declare-const bool_2 Bool)
(declare-const bool_3 Bool)
(declare-const bool_4 Bool)
(declare-const bv_0 (_ BitVec 32))
(declare-const bv_1 (_ BitVec 32))
(declare-const bv_2 (_ BitVec 32))
(declare-const bv_3 (_ BitVec 32))
(declare-const bv_4 (_ BitVec 32))
(assert (or (and (bvuge #x75e29c94  bv_0) (bvsle bv_2 #x505bcc47 )) (=> (bvult bv_0 bv_2) (bvsge bv_4 bv_4))))
(assert (bvsge (bvmul (bvxor bv_3 #xfa806595 ) (bvand bv_1 #x325b5de8 )) (bvxnor (bvudiv bv_4 #xa007d274 ) (bvxnor bv_4 #x5731fa76 ))))
(assert (bvsle (bvsdiv (bvnand bv_1 #x8642f7fa ) (bvurem bv_3 bv_4)) (bvsub (bvashr bv_1 #xb01f4714 ) (bvxnor bv_3 bv_0))))
(assert (bvsge (bvurem (bvurem #x821b5e92  #xbd4ffc10 ) (bvurem #x2da73953  bv_1)) (bvsmod (bvudiv bv_1 bv_0) (bvand bv_1 bv_4))))
(assert (bvslt (bvxor (bvmul #x1ef96769  bv_3) (bvnand #xe3d28ed1  bv_2)) (bvurem (bvsub #x1e288aaf  bv_0) (bvlshr bv_4 #x50a11ebc ))))
(check-sat)
(exit)
